Traveling Salesman Problem/TSP_generados/Aleatorio1620391917_16.tsp
NAME: Aleatorio1620391917_16.tsp
COMMENT: Randomly generated scenario
TYPE: TSP
DIMENSION: 16
EDGE_WEIGHT_TYPE: ATT
NODE_COORD_SECTION
1 28.84 15.01
2 44.31 30.58
3 6.15 6.74
4 47.46 16.9
5 33.71 42.52
6 4.77 6.8
7 22.01 34.39
8 10.35 2.55
9 48.26 24.71
10 7.95 17.09
11 4.98 47.67
12 30.33 37.7
13 48.67 10.87
14 18.37 9.53
15 29.67 29.76
16 43.05 47.47
