Traveling Salesman Problem/TSP_generados/Aleatorio1620391917_16.opt.tour
NAME: Aleatorio1620391917_16.opt.tour
COMMENT: Optimal solution for Aleatorio1620391917_16 (184.49967818017353)
TYPE: TOUR
DIMENSION: 16
TOUR_SECTION
1 13 4 9 2 16 5 12 15 7 11 10 6 3 8 14
-1
EOF
